
include ${pot}.lmp
include kalj.lmp
units lj
atom_style atomic

variable dimensions equal 3
variable density equal 1.2
variable fraca equal 0.8

dimension ${dimensions}
dimension 3
read_restart ${prevbasename}.final.lmprestart.${prevsteps}
read_restart equil/kalj_T2_n360_v300_10000_1.final.lmprestart.${prevsteps}
read_restart equil/kalj_T2_n360_v300_10000_1.final.lmprestart.10000
Reading restart file ...
  restart file = 15 Sep 2022, LAMMPS = 15 Sep 2022
  restoring atom style atomic from restart
  orthogonal box = (0 0 0) to (6.6943295 6.6943295 6.6943295)
  1 by 1 by 1 MPI processor grid
  restoring pair style lj/cut from restart
  360 atoms
  read_restart CPU = 0.001 seconds
include ${pot}_particles.lmp
include kalj_particles.lmp
mass * 1.0 #  set mass 1.0 for all types

pair_style lj/cut 2.5
#pair coeffs type1 type2 eps sigma
pair_coeff 1 1 1.0 1.00 2.5
pair_coeff 1 2 1.5 0.80 2.0
pair_coeff 2 2 0.5 0.88 2.2
pair_modify shift yes
reset_timestep 0

print "Setting up annealing run"
Setting up annealing run
dump 1 all atom ${dumptime} ${basename}.lammpstrj
dump 1 all atom 10000 ${basename}.lammpstrj
dump 1 all atom 10000 equil/kalj_T1.5_n360_v300_10000_1.lammpstrj
#dump_modify 1 sort id scale no

restart ${restarttime} ${basename}.restart
restart 10000 ${basename}.restart
restart 10000 equil/kalj_T1.5_n360_v300_10000_1.restart
restart ${steps} ${basename}.final.lmprestart
restart 10000 ${basename}.final.lmprestart
restart 10000 equil/kalj_T1.5_n360_v300_10000_1.final.lmprestart

thermo ${thermotime}
thermo 1000
timestep ${timestep}
timestep 0.002

neighbor 0.5 bin
neigh_modify every 1 delay ${neighborstep} check yes
neigh_modify every 1 delay 20 check yes

velocity all create ${temp} ${id} dist gaussian
velocity all create 1.5 ${id} dist gaussian
velocity all create 1.5 1 dist gaussian
fix 1 all nvt temp ${temp} ${temp} ${taut}
fix 1 all nvt temp 1.5 ${temp} ${taut}
fix 1 all nvt temp 1.5 1.5 ${taut}
fix 1 all nvt temp 1.5 1.5 0.2
run ${steps}
run 10000
Generated 0 of 1 mixed pair_coeff terms from geometric mixing rule
Neighbor list info ...
  update: every = 1 steps, delay = 20 steps, check = yes
  max neighbors/atom: 2000, page size: 100000
  master list distance cutoff = 3
  ghost atom cutoff = 3
  binsize = 1.5, bins = 5 5 5
  1 neighbor lists, perpetual/occasional/extra = 1 0 0
  (1) pair lj/cut, perpetual
      attributes: half, newton on
      pair build: half/bin/atomonly/newton
      stencil: half/bin/3d
      bin: standard
Per MPI rank memory allocation (min/avg/max) = 4.158 | 4.158 | 4.158 Mbytes
   Step          Temp          E_pair         E_mol          TotEng         Press     
         0   1.5            4.8229584      0              7.0667084      72.700026    
      1000   1.4542376     -5.1406659      0             -2.9653689      15.644199    
      2000   1.5727645     -5.2926705      0             -2.9400769      14.95113     
      3000   1.5697979     -5.2896682      0             -2.9415122      14.871176    
      4000   1.4711738     -5.3902984      0             -3.1896676      14.331823    
      5000   1.6332695     -5.3709661      0             -2.9278671      14.580233    
      6000   1.5396674     -5.2748162      0             -2.9717304      15.085052    
      7000   1.5430735     -5.3731961      0             -3.0650153      14.353794    
      8000   1.5027584     -5.2469675      0             -2.9990915      15.004624    
      9000   1.4219029     -5.2574583      0             -3.1305285      15.049718    
     10000   1.6086962     -5.2048644      0             -2.798523       15.578144    
Loop time of 2.75859 on 1 procs for 10000 steps with 360 atoms

Performance: 626407.945 tau/day, 3625.046 timesteps/s, 1.305 Matom-step/s
99.6% CPU use with 1 MPI tasks x 1 OpenMP threads

MPI task timing breakdown:
Section |  min time  |  avg time  |  max time  |%varavg| %total
---------------------------------------------------------------
Pair    | 2.3859     | 2.3859     | 2.3859     |   0.0 | 86.49
Neigh   | 0.23447    | 0.23447    | 0.23447    |   0.0 |  8.50
Comm    | 0.077633   | 0.077633   | 0.077633   |   0.0 |  2.81
Output  | 0.0010978  | 0.0010978  | 0.0010978  |   0.0 |  0.04
Modify  | 0.046898   | 0.046898   | 0.046898   |   0.0 |  1.70
Other   |            | 0.01254    |            |       |  0.45

Nlocal:            360 ave         360 max         360 min
Histogram: 1 0 0 0 0 0 0 0 0 0
Nghost:           2090 ave        2090 max        2090 min
Histogram: 1 0 0 0 0 0 0 0 0 0
Neighs:          20812 ave       20812 max       20812 min
Histogram: 1 0 0 0 0 0 0 0 0 0

Total # of neighbors = 20812
Ave neighs/atom = 57.811111
Neighbor list builds = 346
Dangerous builds = 9
Total wall time: 0:00:02
