
include ${pot}.lmp
include kalj.lmp
units lj
atom_style atomic

variable dimensions equal 3
variable density equal 1.2
variable fraca equal 0.8

dimension ${dimensions}
dimension 3
read_restart ${prevbasename}.final.lmprestart.${prevsteps}
read_restart equil/kalj_T0.9_n360_v300_150000_1.final.lmprestart.${prevsteps}
read_restart equil/kalj_T0.9_n360_v300_150000_1.final.lmprestart.150000
Reading restart file ...
  restart file = 15 Sep 2022, LAMMPS = 15 Sep 2022
  restoring atom style atomic from restart
  orthogonal box = (0 0 0) to (6.6943295 6.6943295 6.6943295)
  1 by 1 by 1 MPI processor grid
  restoring pair style lj/cut from restart
  360 atoms
  read_restart CPU = 0.001 seconds
include ${pot}_particles.lmp
include kalj_particles.lmp
mass * 1.0 #  set mass 1.0 for all types

pair_style lj/cut 2.5
#pair coeffs type1 type2 eps sigma
pair_coeff 1 1 1.0 1.00 2.5
pair_coeff 1 2 1.5 0.80 2.0
pair_coeff 2 2 0.5 0.88 2.2
pair_modify shift yes
reset_timestep 0

print "Setting up annealing run"
Setting up annealing run
dump 1 all atom ${dumptime} ${basename}.lammpstrj
dump 1 all atom 50000 ${basename}.lammpstrj
dump 1 all atom 50000 equil/kalj_T0.8_n360_v300_150000_1.lammpstrj
#dump_modify 1 sort id scale no

restart ${restarttime} ${basename}.restart
restart 150000 ${basename}.restart
restart 150000 equil/kalj_T0.8_n360_v300_150000_1.restart
restart ${steps} ${basename}.final.lmprestart
restart 150000 ${basename}.final.lmprestart
restart 150000 equil/kalj_T0.8_n360_v300_150000_1.final.lmprestart

thermo ${thermotime}
thermo 5000
timestep ${timestep}
timestep 0.002

neighbor 0.5 bin
neigh_modify every 1 delay ${neighborstep} check yes
neigh_modify every 1 delay 25 check yes

velocity all create ${temp} ${id} dist gaussian
velocity all create 0.8 ${id} dist gaussian
velocity all create 0.8 1 dist gaussian
fix 1 all nvt temp ${temp} ${temp} ${taut}
fix 1 all nvt temp 0.8 ${temp} ${taut}
fix 1 all nvt temp 0.8 0.8 ${taut}
fix 1 all nvt temp 0.8 0.8 0.2
Resetting global fix info from restart file:
  fix style: nvt, fix ID: 1
run ${steps}
run 150000
Generated 0 of 1 mixed pair_coeff terms from geometric mixing rule
All restart file global fix info was re-assigned
Neighbor list info ...
  update: every = 1 steps, delay = 25 steps, check = yes
  max neighbors/atom: 2000, page size: 100000
  master list distance cutoff = 3
  ghost atom cutoff = 3
  binsize = 1.5, bins = 5 5 5
  1 neighbor lists, perpetual/occasional/extra = 1 0 0
  (1) pair lj/cut, perpetual
      attributes: half, newton on
      pair build: half/bin/atomonly/newton
      stencil: half/bin/3d
      bin: standard
Per MPI rank memory allocation (min/avg/max) = 4.157 | 4.157 | 4.157 Mbytes
   Step          Temp          E_pair         E_mol          TotEng         Press     
         0   0.8           -6.1207012      0             -4.9240345      8.8581432    
      5000   0.80618898    -6.3701797      0             -5.1642554      7.5315757    
     10000   0.82850109    -6.2664817      0             -5.0271821      8.0866822    
     15000   0.77613857    -6.3129142      0             -5.1519402      7.9211703    
     20000   0.76816403    -6.3396163      0             -5.190571       7.7244596    
     25000   0.8394308     -6.3069199      0             -5.0512713      7.8513016    
     30000   0.85133707    -6.4189654      0             -5.145507       7.15968      
     35000   0.76521907    -6.3400822      0             -5.195442       7.7471349    
     40000   0.76768656    -6.3839233      0             -5.2355921      7.2512503    
     45000   0.86643563    -6.2748452      0             -4.9788019      8.0403952    
     50000   0.85793704    -6.2822182      0             -4.9988874      8.1028282    
     55000   0.80012778    -6.2766367      0             -5.0797788      8.1427862    
     60000   0.78036497    -6.3836522      0             -5.2163563      7.3780428    
     65000   0.77402121    -6.39479        0             -5.2369832      7.3351509    
     70000   0.80409475    -6.2957873      0             -5.0929955      7.8267156    
     75000   0.75275554    -6.3121556      0             -5.1861587      7.8057944    
     80000   0.79025344    -6.3369407      0             -5.1548533      7.6226184    
     85000   0.82520971    -6.2488399      0             -5.0144637      8.2362836    
     90000   0.81142232    -6.3205652      0             -5.1068127      7.6564947    
     95000   0.7433819     -6.373939       0             -5.2619636      7.2934224    
    100000   0.78449717    -6.3958868      0             -5.2224098      7.3477787    
    105000   0.87639733    -6.4208383      0             -5.109894       7.2600868    
    110000   0.70059047    -6.2762678      0             -5.2283012      8.0165204    
    115000   0.89296701    -6.329221       0             -4.9934912      7.9013788    
    120000   0.77309422    -6.3161658      0             -5.1597457      7.7494286    
    125000   0.89317952    -6.3055682      0             -4.9695205      7.9322456    
    130000   0.80980246    -6.402186       0             -5.1908565      7.2743015    
    135000   0.78512934    -6.3937367      0             -5.2193141      7.4105277    
    140000   0.76967708    -6.3698182      0             -5.2185096      7.3165146    
    145000   0.75564807    -6.2809175      0             -5.1505939      7.9592743    
    150000   0.77417143    -6.3597116      0             -5.2016801      7.4945134    
Loop time of 39.9816 on 1 procs for 150000 steps with 360 atoms

Performance: 648297.690 tau/day, 3751.723 timesteps/s, 1.351 Matom-step/s
99.7% CPU use with 1 MPI tasks x 1 OpenMP threads

MPI task timing breakdown:
Section |  min time  |  avg time  |  max time  |%varavg| %total
---------------------------------------------------------------
Pair    | 35.578     | 35.578     | 35.578     |   0.0 | 88.99
Neigh   | 2.3775     | 2.3775     | 2.3775     |   0.0 |  5.95
Comm    | 1.131      | 1.131      | 1.131      |   0.0 |  2.83
Output  | 0.0024472  | 0.0024472  | 0.0024472  |   0.0 |  0.01
Modify  | 0.70157    | 0.70157    | 0.70157    |   0.0 |  1.75
Other   |            | 0.1906     |            |       |  0.48

Nlocal:            360 ave         360 max         360 min
Histogram: 1 0 0 0 0 0 0 0 0 0
Nghost:           2084 ave        2084 max        2084 min
Histogram: 1 0 0 0 0 0 0 0 0 0
Neighs:          20813 ave       20813 max       20813 min
Histogram: 1 0 0 0 0 0 0 0 0 0

Total # of neighbors = 20813
Ave neighs/atom = 57.813889
Neighbor list builds = 3589
Dangerous builds = 0
Total wall time: 0:00:39
