
include ${pot}.lmp
include kalj.lmp
units lj
atom_style atomic

variable dimensions equal 3
variable density equal 1.2
variable fraca equal 0.8

dimension ${dimensions}
dimension 3

#setup box
variable boxlength equal exp(ln(${volume})/${dimensions})
variable boxlength equal exp(ln(300)/${dimensions})
variable boxlength equal exp(ln(300)/3)
variable ntypea equal floor(${fraca}*${natoms})
variable ntypea equal floor(0.8*${natoms})
variable ntypea equal floor(0.8*360)
variable bstart equal ${ntypea}+1
variable bstart equal 288+1
variable ntypeb equal ${natoms}-${ntypea}
variable ntypeb equal 360-${ntypea}
variable ntypeb equal 360-288

lattice fcc ${density}
lattice fcc 1.2
Lattice spacing in x,y,z = 1.4938016 1.4938016 1.4938016
region box01 block 0 ${boxlength} 0 ${boxlength} 0 ${boxlength} units box
region box01 block 0 6.69432950082169 0 ${boxlength} 0 ${boxlength} units box
region box01 block 0 6.69432950082169 0 6.69432950082169 0 ${boxlength} units box
region box01 block 0 6.69432950082169 0 6.69432950082169 0 6.69432950082169 units box
create_box 2 box01 # 2 atomtypes
Created orthogonal box = (0 0 0) to (6.6943295 6.6943295 6.6943295)
  1 by 1 by 1 MPI processor grid
create_atoms 1 box
Created 365 atoms
  using lattice units in orthogonal box = (0 0 0) to (6.6943295 6.6943295 6.6943295)
  create_atoms CPU = 0.000 seconds

set atom ${bstart}* type 2
set atom 289* type 2
Setting atom values ...
  77 settings made for type
group extra id > ${natoms}
group extra id > 360
5 atoms in group extra
delete_atoms group extra
Deleted 5 atoms, new total = 360
group typea type 1
288 atoms in group typea
group typeb type 2
72 atoms in group typeb

include ${pot}_particles.lmp
include kalj_particles.lmp
mass * 1.0 #  set mass 1.0 for all types

pair_style lj/cut 2.5
#pair coeffs type1 type2 eps sigma
pair_coeff 1 1 1.0 1.00 2.5
pair_coeff 1 2 1.5 0.80 2.0
pair_coeff 2 2 0.5 0.88 2.2
pair_modify shift yes

print "Minimizing initial structure"
Minimizing initial structure
restart ${minsteps} ${basename}.final.lmprestart
restart 10000 ${basename}.final.lmprestart
restart 10000 equil/kalj_T2_n360_v300_10000_1.final.lmprestart
dump 1 all atom ${dumptime} ${basename}.lammpstrj
dump 1 all atom 10000 ${basename}.lammpstrj
dump 1 all atom 10000 equil/kalj_T2_n360_v300_10000_1.lammpstrj
thermo ${thermotime}
thermo 1000
timestep ${timestep}
timestep 0.001
neighbor 0.5 bin
neigh_modify every 1 delay 0 check yes
fix 1 all nve/limit 0.1
run ${minsteps}
run 10000
Generated 0 of 1 mixed pair_coeff terms from geometric mixing rule
Neighbor list info ...
  update: every = 1 steps, delay = 0 steps, check = yes
  max neighbors/atom: 2000, page size: 100000
  master list distance cutoff = 3
  ghost atom cutoff = 3
  binsize = 1.5, bins = 5 5 5
  1 neighbor lists, perpetual/occasional/extra = 1 0 0
  (1) pair lj/cut, perpetual
      attributes: half, newton on
      pair build: half/bin/atomonly/newton
      stencil: half/bin/3d
      bin: standard
Per MPI rank memory allocation (min/avg/max) = 4.192 | 4.192 | 4.192 Mbytes
   Step          Temp          E_pair         E_mol          TotEng         Press     
         0   0              24.812138      0              24.812138      166.40776    
      1000   13.231017      4.8746127      0              24.666009      86.684258    
      2000   14.073872      3.6123392      0              24.664506      80.724529    
      3000   13.387675      4.6393334      0              24.665064      85.43068     
      4000   13.047264      5.1481468      0              24.664679      87.531688    
      5000   13.614245      4.3003265      0              24.664968      83.580022    
      6000   13.814503      4.0009578      0              24.665152      82.37351     
      7000   13.96231       3.7795752      0              24.664863      81.435999    
      8000   13.742436      4.1087018      0              24.665095      82.962465    
      9000   14.068224      3.6203022      0              24.66402       81.151191    
     10000   13.265216      4.8229584      0              24.665511      86.779068    
Loop time of 2.95691 on 1 procs for 10000 steps with 360 atoms

Performance: 292196.449 tau/day, 3381.903 timesteps/s, 1.217 Matom-step/s
99.7% CPU use with 1 MPI tasks x 1 OpenMP threads

MPI task timing breakdown:
Section |  min time  |  avg time  |  max time  |%varavg| %total
---------------------------------------------------------------
Pair    | 2.438      | 2.438      | 2.438      |   0.0 | 82.45
Neigh   | 0.37633    | 0.37633    | 0.37633    |   0.0 | 12.73
Comm    | 0.086874   | 0.086874   | 0.086874   |   0.0 |  2.94
Output  | 0.0031969  | 0.0031969  | 0.0031969  |   0.0 |  0.11
Modify  | 0.03407    | 0.03407    | 0.03407    |   0.0 |  1.15
Other   |            | 0.01841    |            |       |  0.62

Nlocal:            360 ave         360 max         360 min
Histogram: 1 0 0 0 0 0 0 0 0 0
Nghost:           2109 ave        2109 max        2109 min
Histogram: 1 0 0 0 0 0 0 0 0 0
Neighs:          20759 ave       20759 max       20759 min
Histogram: 1 0 0 0 0 0 0 0 0 0

Total # of neighbors = 20759
Ave neighs/atom = 57.663889
Neighbor list builds = 541
Dangerous builds = 0
Total wall time: 0:00:02
